Version identifier: 22.1.0.0 | 2022-03-09 | 1a383f8ce
CPXPARAM_Threads                                 1
CPXPARAM_MIP_Strategy_VariableSelect             3
CPXPARAM_TimeLimit                               600
Tried aggregator 1 time.
Reduced MIP has 2425 rows, 14000 columns, and 112865 nonzeros.
Reduced MIP has 12000 binaries, 2000 generals, 0 SOSs, and 0 indicators.
Presolve time = 0.06 sec. (44.08 ticks)
Found incumbent of value 2.002000 after 0.16 sec. (110.37 ticks)
Tried aggregator 1 time.
Detecting symmetries...
Reduced MIP has 2425 rows, 14000 columns, and 112865 nonzeros.
Reduced MIP has 12000 binaries, 2000 generals, 0 SOSs, and 0 indicators.
Presolve time = 0.08 sec. (54.69 ticks)
Probing time = 0.01 sec. (10.83 ticks)
Clique table members: 403.
MIP emphasis: balance optimality and feasibility.
MIP search method: dynamic search.
Parallel mode: none, using 1 thread.
Root relaxation solution time = 1.91 sec. (1928.16 ticks)

        Nodes                                         Cuts/
   Node  Left     Objective  IInf  Best Integer    Best Bound    ItCnt     Gap

*     0+    0                            2.0020        0.0000           100.00%
      0     0        0.0000  2188        2.0020        0.0000     6458  100.00%
      0     0        0.0000   540        2.0020   ZeroHalf: 1     7218  100.00%
      0     0        0.0000   877        2.0020      Cuts: 61     9889  100.00%
*     0+    0                            0.0070        0.0000           100.00%
*     0+    0                            0.0060        0.0000           100.00%
      0     0  -1.00000e+75     0        0.0060        0.0000     9889  100.00%
Detecting symmetries...
      0     2        0.0000   433        0.0060        0.0000     9889  100.00%
Elapsed time = 35.77 sec. (38610.09 ticks, tree = 0.01 MB, solutions = 3)
      1     3        0.0000   636        0.0060        0.0000    20864  100.00%
      2     4        0.0000   517        0.0060        0.0000    25338  100.00%
      3     5        0.0000   498        0.0060        0.0000    30476  100.00%
      4     6        0.0000   504        0.0060        0.0000    35072  100.00%
      5     7        0.0000   509        0.0060        0.0000    35938  100.00%
      6     8        0.0000   714        0.0060        0.0000    57053  100.00%
      7     9        0.0000   512        0.0060        0.0000    66981  100.00%
      8    10       -0.0000  1365        0.0060        0.0000    69105  100.00%
      9    11        0.0000   518        0.0060        0.0000    69147  100.00%
     10    12        0.0000   550        0.0060        0.0000    75803  100.00%
Elapsed time = 61.01 sec. (64681.89 ticks, tree = 0.04 MB, solutions = 3)
     12    14        0.0000   671        0.0060        0.0000    79895  100.00%
     13    15        0.0000   531        0.0060        0.0000    79955  100.00%
     14    16        0.0000   573        0.0060        0.0000    85020  100.00%
     16    18        0.0000   567        0.0060        0.0000    92316  100.00%
     18    20        0.0000   574        0.0060        0.0000    96814  100.00%
     20    22        0.0000   722        0.0060        0.0000   103582  100.00%
     22    24        0.0000   681        0.0060        0.0000   104758  100.00%
     23    25        0.0000   782        0.0060        0.0000   109841  100.00%
     25    27        0.0000   715        0.0060        0.0000   114744  100.00%
     27    29        0.0000   624        0.0060        0.0000   117273  100.00%
Elapsed time = 95.12 sec. (99676.25 ticks, tree = 0.23 MB, solutions = 3)
     28    30        0.0000   638        0.0060        0.0000   121869  100.00%
     30    32        0.0000   652        0.0060        0.0000   128581  100.00%
     32    34        0.0000   739        0.0060        0.0000   129599  100.00%
     34    36        0.0000   601        0.0060        0.0000   137186  100.00%
     36    38        0.0000   600        0.0060        0.0000   138834  100.00%
     37    39        0.0000   556        0.0060        0.0000   143568  100.00%
     38    40        0.0000   580        0.0060        0.0000   146675  100.00%
     40    42        0.0000   536        0.0060        0.0000   147225  100.00%
     42    44        0.0000   546        0.0060        0.0000   148211  100.00%
     44    46        0.0000   802        0.0060        0.0000   155243  100.00%
Elapsed time = 119.08 sec. (123274.56 ticks, tree = 0.59 MB, solutions = 3)
     46    48        0.0000   615        0.0060        0.0000   165257  100.00%
     48    50        0.0000   538        0.0060        0.0000   170587  100.00%
     50    52        0.0000   518        0.0060        0.0000   171759  100.00%
     51    53        0.0000   643        0.0060        0.0000   174908  100.00%
     53    55        0.0000   503        0.0060        0.0000   175651  100.00%
     54    56        0.0000   684        0.0060        0.0000   179033  100.00%
     56    58        0.0000   613        0.0060        0.0000   181562  100.00%
     58    60        0.0000   513        0.0060        0.0000   186259  100.00%
     59    61        0.0000   499        0.0060        0.0000   191570  100.00%
     60    62        0.0000   662        0.0060        0.0000   192970  100.00%
Elapsed time = 144.13 sec. (149070.44 ticks, tree = 0.90 MB, solutions = 3)
     62    64        0.0000   504        0.0060        0.0000   196942  100.00%
     64    66        0.0000   498        0.0060        0.0000   197030  100.00%
     65    67        0.0000   699        0.0060        0.0000   202421  100.00%
     67    69        0.0000   624        0.0060        0.0000   206093  100.00%
     69    71        0.0000   491        0.0060        0.0000   210693  100.00%
     70    72        0.0000   479        0.0060        0.0000   212323  100.00%
     71    73        0.0000   492        0.0060        0.0000   216925  100.00%
     72    74        0.0000   471        0.0060        0.0000   217408  100.00%
     73    75        0.0000   777        0.0060        0.0000   222186  100.00%
     75    77        0.0000   713        0.0060        0.0000   227238  100.00%
Elapsed time = 166.92 sec. (172515.27 ticks, tree = 1.22 MB, solutions = 3)
     77    79        0.0000   638        0.0060        0.0000   227796  100.00%
     78    80        0.0000   646        0.0060        0.0000   233307  100.00%
     80    82        0.0000   525        0.0060        0.0000   245141  100.00%
     81    83        0.0000   584        0.0060        0.0000   253596  100.00%
     83    85        0.0000   361        0.0060        0.0000   258507  100.00%
     84    86        0.0000   447        0.0060        0.0000   262793  100.00%
     85    87        0.0000   480        0.0060        0.0000   264032  100.00%
     86    88        0.0000   455        0.0060        0.0000   266594  100.00%
     87    89        0.0000   476        0.0060        0.0000   267923  100.00%
     88    90        0.0000   480        0.0060        0.0000   270421  100.00%
Elapsed time = 192.65 sec. (199085.41 ticks, tree = 1.43 MB, solutions = 3)
     90    92        0.0000   790        0.0060        0.0000   274197  100.00%
     92    94        0.0000   472        0.0060        0.0000   277719  100.00%
     93    95        0.0000   537        0.0060        0.0000   278892  100.00%
     95    97        0.0000   725        0.0060        0.0000   282101  100.00%
     97    99        0.0000   523        0.0060        0.0000   285698  100.00%
     98   100        0.0000   480        0.0060        0.0000   289416  100.00%
     99   101        0.0000   841        0.0060        0.0000   294069  100.00%
    100   102        0.0000   548        0.0060        0.0000   296864  100.00%
    101   103        0.0000   617        0.0060        0.0000   298563  100.00%
    103   105        0.0000   499        0.0060        0.0000   301424  100.00%
Elapsed time = 219.56 sec. (225842.41 ticks, tree = 1.78 MB, solutions = 3)
    105   107        0.0000   446        0.0060        0.0000   303704  100.00%
    106   108        0.0000   390        0.0060        0.0000   306584  100.00%
    108   110        0.0000   598        0.0060        0.0000   309561  100.00%
    109   111        0.0000   493        0.0060        0.0000   310881  100.00%
    111   113        0.0000   481        0.0060        0.0000   311581  100.00%
    113   115        0.0000   452        0.0060        0.0000   312090  100.00%
    114   116        0.0000   513        0.0060        0.0000   316033  100.00%
    116   118        0.0000   559        0.0060        0.0000   321202  100.00%
    118   120        0.0000   571        0.0060        0.0000   325069  100.00%
    120   122        0.0000   418        0.0060        0.0000   326958  100.00%
Elapsed time = 238.50 sec. (244574.96 ticks, tree = 2.18 MB, solutions = 3)
    121   123        0.0000   589        0.0060        0.0000   330748  100.00%
    123   125        0.0000   796        0.0060        0.0000   334579  100.00%
    125   127        0.0000   410        0.0060        0.0000   335650  100.00%
    126   128        0.0000   645        0.0060        0.0000   339305  100.00%
    127   129        0.0000   687        0.0060        0.0000   343168  100.00%
    128   130        0.0000   387        0.0060        0.0000   346140  100.00%
    129   131        0.0000   608        0.0060        0.0000   349932  100.00%
    131   133        0.0000   660        0.0060        0.0000   352734  100.00%
    133   135        0.0000   822        0.0060        0.0000   355871  100.00%
    135   137        0.0000   676        0.0060        0.0000   359610  100.00%
Elapsed time = 258.76 sec. (265010.47 ticks, tree = 2.52 MB, solutions = 3)
    137   139        0.0000   745        0.0060        0.0000   364403  100.00%
    139   141        0.0000   662        0.0060        0.0000   370732  100.00%
    141   143        0.0000   469        0.0060        0.0000   374768  100.00%
    143   145        0.0000   244        0.0060        0.0000   376722  100.00%
    144   146        0.0000   367        0.0060        0.0000   379016  100.00%
    146   148        0.0000   606        0.0060        0.0000   382269  100.00%
    148   150        0.0000   514        0.0060        0.0000   386991  100.00%
    150   152        0.0000   248        0.0060        0.0000   387866  100.00%
    152   154        0.0000   500        0.0060        0.0000   391451  100.00%
    157   159        0.0000   384        0.0060        0.0000   396405  100.00%
Elapsed time = 283.19 sec. (289432.30 ticks, tree = 3.04 MB, solutions = 3)
    161   163        0.0000   440        0.0060        0.0000   401680  100.00%
    164   166        0.0000   467        0.0060        0.0000   408763  100.00%
    169   171        0.0000   437        0.0060        0.0000   414476  100.00%
    174   176        0.0000   507        0.0060        0.0000   420778  100.00%
    178   180       -0.0000   386        0.0060        0.0000   427965  100.00%
    182   184        0.0000   490        0.0060        0.0000   434548  100.00%
    188   190        0.0000   458        0.0060        0.0000   439359  100.00%
    192   194        0.0000   352        0.0060        0.0000   445128  100.00%
    197   199        0.0000   408        0.0060        0.0000   450895  100.00%
    203   205        0.0000   322        0.0060        0.0000   455487  100.00%
Elapsed time = 326.37 sec. (331919.49 ticks, tree = 4.14 MB, solutions = 3)
    209   211        0.0000   289        0.0060        0.0000   461889  100.00%
    214   216        0.0000   440        0.0060        0.0000   471042  100.00%
    218   220       -0.0000   492        0.0060        0.0000   480675  100.00%
    220   222        0.0000   264        0.0060        0.0000   483781  100.00%
    226   228        0.0000   378        0.0060        0.0000   490281  100.00%
    232   234        0.0000   248        0.0060        0.0000   496170  100.00%
    237   239        0.0000   385        0.0060        0.0000   505191  100.00%
    243   245        0.0000   227        0.0060        0.0000   512052  100.00%
    251   253        0.0025   236        0.0060        0.0000   517145  100.00%
    261   263        0.0050   230        0.0060        0.0000   521330  100.00%
Elapsed time = 372.49 sec. (376178.65 ticks, tree = 5.56 MB, solutions = 3)
    271   272        0.0050   170        0.0060        0.0000   527324  100.00%
*   281   258      integral     0        0.0050        0.0000   530446  100.00%
    283   259        0.0000   213        0.0050        0.0000   532328  100.00%
    288   264        0.0000   280        0.0050        0.0000   539860  100.00%
    295   271        0.0000   172        0.0050        0.0000   545455  100.00%
    300   276        0.0000   191        0.0050        0.0000   550247  100.00%
    306   282        0.0000   172        0.0050        0.0000   558990  100.00%
    312   288        0.0000   185        0.0050        0.0000   564517  100.00%
    319   295        0.0001   436        0.0050        0.0000   574972  100.00%
    324   300       -0.0000   321        0.0050        0.0000   581315  100.00%
    331   307       -0.0000   235        0.0050        0.0000   587444  100.00%
Elapsed time = 417.10 sec. (418339.70 ticks, tree = 6.62 MB, solutions = 4)
    338   314       -0.0000   275        0.0050        0.0000   594867  100.00%
    340   316       -0.0000   315        0.0050        0.0000   598609  100.00%
    346   322       -0.0000   286        0.0050        0.0000   606970  100.00%
    352   328        0.0004   314        0.0050        0.0000   614027  100.00%
    358   334        0.0000   249        0.0050        0.0000   621168  100.00%
    364   340        0.0000   234        0.0050        0.0000   628272  100.00%
    371   347        0.0001   339        0.0050        0.0000   637542  100.00%
    377   353        0.0003   378        0.0050        0.0000   646731  100.00%
    385   361        0.0001   362        0.0050        0.0000   654417  100.00%
    390   366        0.0003   357        0.0050        0.0000   662118  100.00%
Elapsed time = 460.79 sec. (460425.26 ticks, tree = 8.07 MB, solutions = 4)
    399   375        0.0002   246        0.0050        0.0000   666200  100.00%
    406   382        0.0010   368        0.0050        0.0000   673203  100.00%
    414   390        0.0030   317        0.0050        0.0000   678889  100.00%
    422   398        0.0033   333        0.0050        0.0000   685128  100.00%
    432   408        0.0030   193        0.0050        0.0000   690286  100.00%
    443   418        0.0033   168        0.0050        0.0000   696823  100.00%
    458   430        0.0040   113        0.0050        0.0000   703472  100.00%
*   462   397      integral     0        0.0040        0.0000   704002  100.00%
    467   401        0.0004   352        0.0040        0.0000   710248  100.00%
    477   411        0.0005   368        0.0040        0.0000   713377  100.00%
    487   421        0.0005   324        0.0040        0.0000   716242  100.00%
Elapsed time = 504.28 sec. (500299.30 ticks, tree = 9.45 MB, solutions = 5)
    495   429        0.0005   380        0.0040        0.0000   720792  100.00%
    503   437        0.0007   423        0.0040        0.0000   725473  100.00%
    512   446        0.0007   381        0.0040        0.0000   729022  100.00%
    521   455        0.0007   390        0.0040        0.0000   731823  100.00%
    531   465        0.0007   327        0.0040        0.0000   734668  100.00%
    539   473        0.0008   391        0.0040        0.0000   740232  100.00%
    549   483        0.0010   383        0.0040        0.0000   743280  100.00%
    560   494        0.0011   415        0.0040        0.0000   744916  100.00%
*   562+  475                            0.0030        0.0000           100.00%
    573   488        0.0011   399        0.0030        0.0000   747578  100.00%
    586   497        0.0012   429        0.0030        0.0000   750497  100.00%
Elapsed time = 547.57 sec. (540399.00 ticks, tree = 10.13 MB, solutions = 6)
    598   508        0.0012   405        0.0030        0.0000   753314  100.00%
Starting limited solution polishing.
    600   509        0.0012   436        0.0030        0.0000   753992  100.00%
    606   514       -0.0000   340        0.0030        0.0000   759773  100.00%
    615   523        0.0002   255        0.0030        0.0000   763306  100.00%
    628   536        0.0003   370        0.0030        0.0000   765756  100.00%
    639   547        0.0002   340        0.0030        0.0000   768680  100.00%
    649   557        0.0004   434        0.0030        0.0000   773978  100.00%
    658   566        0.0006   446        0.0030        0.0000   777548  100.00%
    668   576        0.0006   481        0.0030        0.0000   779620  100.00%

Zero-half cuts applied:  12
Gomory fractional cuts applied:  1

Root node processing (before b&c):
  Real time             =   35.65 sec. (38469.17 ticks)
Sequential b&c:
  Real time             =  564.35 sec. (548995.07 ticks)
                          ------------
Total (root+branch&cut) =  600.00 sec. (587464.25 ticks)
Primal number of violations:	0.003
Dual number of violations:	0
Status:	Feasible
Time:	599.99
Sequence:
	23
	7
	13
	1
	23
	5
	12
	9
	21
	1
	23
	5
	12
	7
	23
	0
	20
	11
	12
	7
	16
	5
	21
	2
	21
	5
	12
	11
	12
	7
	23
	0
	21
	5
	16
	5
	21
	2
	20
	7
	16
	7
	12
	9
	20
	1
	22
	9
	12
	5
	18
	8
	12
	9
	20
	1
	21
	9
	12
	6
	9
	14
	7
	16
	5
	20
	3
	21
	5
	16
	5
	12
	11
	14
	5
	16
	6
	20
	1
	20
	5
	18
	6
	7
	16
	5
	20
	3
	20
	5
	12
	9
	22
	1
	20
	5
	16
	7
	21
	0
	23
	5
	14
	9
	13
	7
	23
	1
	5
	23
	1
	20
	11
	12
	5
	23
	1
	20
	9
	15
	5
	16
	7
	5
	13
	9
	7
	12
	11
	20
	0
	23
	7
	12
	21
	9
	13
	7
	23
	1
	20
	5
	19
	5
	20
	3
	20
	1
	23
	6
	12
	11
	20
	1
	23
	5
	15
	9
	20
	1
	23
	7
	12
	9
	21
	0
	21
	5
	16
	7
	20
	4
	20
	5
	18
	5
	13
	7
	23
	1
	20
	6
	18
	5
	20
	1
	23
	7
	12
	9
	21
	0
	20
	11
	12
	5
	23
	1
	21
	9
	13
	5
	18
	7
	5
	17
	5
	21
	3
	20
	6
	16
	7
	20
	3
	20
	5
	19
	5
	12
	11
	20
	1
	23
	5
	12
	11
	21
	0
	20
	9
	14
	5
	18
	5
	13
	11
	12
	7
	20
	0
	21
	9
	14
	5
	16
	8
	20
	3
	20
	5
	16
	7
	20
	3
	20
	5
	13
	11
	20
	1
	23
	6
	12
	9
	14
	21
	9
	13
	5
	18
	7
	12
	10
	5
	14
	11
	20
	0
	23
	1
	21
	9
	12
	6
	23
	1
	21
	9
	12
	5
	23
	1
	22
	9
	12
	5
	23
	1
	20
	11
	13
	5
	18
	5
	21
	2
	20
	7
	16
	7
	20
	0
	21
	9
	14
	5
	16
	8
	20
	3
	20
	5
	14
	9
	14
	6
	5
	18
	5
	5
	16
	7
	6
	16
	7
	20
	9
	14
	5
	21
	0
	23
	5
	12
	9
	21
	1
	20
	9
	13
	7
	9
	14
	5
	16
	7
	6
	18
	5
	12
	11
	6
	12
	7
	16
	7
	12
	9
	21
	0
	21
	5
	16
	7
	20
	2
	21
	5
	12
	9
	22
	1
	23
	5
	12
	10
	21
	1
	23
	5
	12
	10
	21
	1
	20
	9
	12
	7
	24
